Route #1: 4 30 74 48 47 21 61 28 62 2
Route #2: 45 29 5 36 69 71 60 70 20 37 15 57 13 27 52
Route #3: 54 59 66 65 38 10 58 72 31 55 25
Route #4: 50 18 24 49 23 56 41 43 42 64 22 1 73
Route #5: 33 63 16 3 44 32 9 39 40 12
Route #6: 7 35 53 11 14 19 8 46 34
Route #7: 67 26 17 51 6 68 75
Cost 744